WARNING: for repeatability, setting FPU to use double precision
============================[ Problem Statistics ]=============================
|                                                                             |
|  Number of variables:            50                                         |
|  Number of clauses:             218                                         |
|  Parse time:                   0.00 s                                       |
|                                                                             |
============================[ Search Statistics ]==============================
| Conflicts |          ORIGINAL         |          LEARNT          | Progress |
|           |    Vars  Clauses Literals |    Limit  Clauses Lit/Cl |          |
===============================================================================
===============================================================================
restarts              : 1
conflicts             : 43             (30282 /sec)
decisions             : 48             (0.00 % random) (33803 /sec)
propagations          : 572            (402817 /sec)
conflict literals     : 146            (23.96 % deleted)
Memory used           : 20.00 MB
CPU time              : 0.00142 s

UNSATISFIABLE
